(declare-fun P1 (Int Bool) Bool)
(declare-fun P2 (Int Bool) Bool)
(declare-fun P3 (Int Int) Bool)
(declare-fun P4 (Int) Bool)
(declare-fun P5 (Int) Bool)
(declare-fun P6 (Int Int) Bool)
(declare-fun P7 (Int Int Int Int) Bool)
(declare-fun P8 (Int Int) Bool)
(declare-fun P9 (Int) Bool)
(assert (forall ((v1 Int) (v2 Bool)) (=> (and (P4 v1) v2) (P1 v1 v2))))
(assert (forall ((v1 Int) (v2 Int) (v3 Int) (v4 Bool)) (=> (and (P2 v3 v4) (= (+ 1 v1) v2) (>= v2 1)) (P4 v1))))
(assert (forall ((v1 Int) (v2 Bool) (v3 Int)) (=> (and (P8 3 v3) (= v2 (>= v1 0))) (P2 v1 v2))))
(assert (forall ((v1 Int) (v2 Int)) (=> (and (P4 v1)) (P3 v1 v2))))
(assert (forall ((v1 Int)) (=> (P8 3 v1) (P4 v1))))
(assert (forall ((v1 Int) (v2 Int) (v3 Int)) (=> (and (P5 v3)) (P8 v1 v2))))
(assert (forall ((v1 Int)) (=> (P6 0 v1) (P5 v1))))
(assert (forall ((v1 Int) (v2 Int) (v3 Int) (v4 Int)) (=> (and (P7 v4 0 v1 v2) (P9 v4) (= (+ 1 v3) v4) (<= 1 v4)) (P6 v1 v2))))
(assert (forall ((v1 Int) (v2 Int) (v3 Int) (v4 Int)) (=> (and (= v2 1)) (P7 v1 v2 v3 v4))))
(assert (forall ((v1 Int) (v2 Int)) (=> (and (P9 v1) (<= v1 0)) (P8 v1 v2))))
(assert (forall ((v1 Int) (v2 Int)) (=> (and (>= v2 1)) (P9 v1))))
(assert (forall ((v1 Int)) (=> (= v1 3) (P9 v1))))
(check-sat)
